86 300 114 118 119 121 101 127 111 113 101 142 121 100 111 108 137 113 128 135 121 110 147 131 125 147 126 124 101 114 107 133 114 121 125 133 142 100 110 128 113 136 119 134 136 130 142 147 117 144 132 139 128 102 144 102 149 119 100 124 107 108 131 122 103 106 129 146 106 113 123 120 149 116 128 109 146 145 105 137 112 111 125 141 114 118 117 137 